#BEGIN: [Fri Oct 28 10:24:57 2022]
#HOST: mini05.local
#TIMELIMIT: 10800
#MEMLIMIT: 0
#FREQ: 10
#SOLVER: anSolverAsp221027
#CSP: benchmark/automata-network/abdallah17amb_asp/fisson-yeast.lp
#K: 1
#COMMAND: /Users/soh/app/finding_attractors/incremental-finding.sh benchmark/automata-network/abdallah17amb_asp/fisson-yeast.lp 1
benchmark/automata-network/abdallah17amb_asp/fisson-yeast.lp 1
-e %----- The attractor computed for benchmark/automata-network/abdallah17amb_asp/fisson-yeast.lp 
 %----- The size of the attractor = 1 

clingo version 5.4.0
Reading from ...from_paper2017/scripts/fixed-points.lp ...
Solving...
Answer: 1
fix("Start",0) fix("SK",0) fix("Cdc2_Cdc13",0) fix("Ste9",1) fix("Rum1",1) fix("Slp1",0) fix("Wee1_Mik1",1) fix("Cdc25",0) fix("PP",0)
SATISFIABLE

Models       : 1
Calls        : 1
Time         : 0.010s (Solving: 0.00s 1st Model: 0.00s Unsat: 0.00s)
CPU Time     : 0.005s
s SATISFIABLE
	Command being timed: "/Users/soh/app/finding_attractors/incremental-finding.sh benchmark/automata-network/abdallah17amb_asp/fisson-yeast.lp 1"
	User time (seconds): 0.01
	System time (seconds): 0.00
	Percent of CPU this job got: 60%
	Elapsed (wall clock) time (h:mm:ss or m:ss): 0:00.02
	Average shared text size (kbytes): 0
	Average unshared data size (kbytes): 0
	Average stack size (kbytes): 0
	Average total size (kbytes): 0
	Maximum resident set size (kbytes): 13713408
	Average resident set size (kbytes): 0
	Major (requiring I/O) page faults: 0
	Minor (reclaiming a frame) page faults: 2238
	Voluntary context switches: 26
	Involuntary context switches: 63
	Swaps: 0
	File system inputs: 0
	File system outputs: 0
	Socket messages sent: 44
	Socket messages received: 0
	Signals delivered: 1
	Page size (bytes): 4096
	Exit status: 0
FINISHED CPU 0.01 MEM 0 MAXMEM 0 STALE 1
#RESULT: SAT
#FIN: FIN
#CPU: 0.01
#MAXMEM: 0
c 
#END: [Fri Oct 28 10:24:57 2022]
